case=4 vars=390 cons=188 nnz=774
Running HiGHS 1.8.0 (git hash: 222cce7): Copyright (c) 2024 HiGHS under MIT licence terms
Coefficient ranges:
  Matrix [1e+00, 1e+00]
  Cost   [0e+00, 0e+00]
  Bound  [1e+00, 1e+00]
  RHS    [1e+00, 6e+00]
Presolving model
37 rows, 72 cols, 186 nonzeros  0s
37 rows, 72 cols, 186 nonzeros  0s
Objective function is integral with scale 1

Solving MIP model with:
   37 rows
   72 cols (72 binary, 0 integer, 0 implied int., 0 continuous)
   186 nonzeros
MIP-Timing:     0.00055 - starting analytic centre calculation

Src: B => Branching; C => Central rounding; F => Feasibility pump; H => Heuristic; L => Sub-MIP;
     P => Empty MIP; R => Randomized rounding; S => Solve LP; T => Evaluate node; U => Unbounded;
     z => Trivial zero; l => Trivial lower; u => Trivial upper; p => Trivial point

        Nodes      |    B&B Tree     |            Objective Bounds              |  Dynamic Constraints |       Work
Src  Proc. InQueue |  Leaves   Expl. | BestBound       BestSol              Gap |   Cuts   InLp Confl. | LpIters     Time

         0       0         0   0.00%   0               inf                  inf        0      0      0         0     0.0s
         0       0         0   0.00%   0               inf                  inf        0      0      2       122     0.0s
 R       0       0         0 100.00%   0               0                  0.00%       22      5     10       134     0.0s
         1       0         1 100.00%   0               0                  0.00%       22      5     10       134     0.0s

Solving report
  Status            Optimal
  Primal bound      0
  Dual bound        0
  Gap               0%
  P-D integral      0
  Solution status   feasible
                    0 (objective)
                    0 (bound viol.)
                    0 (int. viol.)
                    0 (row viol.)
  Timing            0.00 (total)
                    0.00 (presolve)
                    0.00 (solve)
                    0.00 (postsolve)
  Max sub-MIP depth 0
  Nodes             1
  Repair LPs        0 (0 feasible; 0 iterations)
  LP iterations     134 (total)
                    0 (strong br.)
                    12 (separation)
                    0 (heuristics)
status 0
message Optimization terminated successfully. (HiGHS Status 7: Optimal)
success True
degrees [6, 6, 6, 6, 6, 6, 6, 6, 6, 6, 6, 6, 6]
0111111000000
0010011101010
0001011101010
0100101101010
0110010101010
0001000011111
0000110010111
1000011010101
1111100000100
1000001110101
1111100000001
1000000111101
1111100010000
witness 0 [1, 2, 3, 4] [7, 9, 11]
witness 1 [] []
witness 2 [] []
witness 3 [] []
witness 4 [] []
witness 5 [] []
witness 6 [] []
witness 7 [] []
witness 8 [] []
witness 9 [] []
witness 10 [] []
witness 11 [] []
witness 12 [] []
